1000
13 872
13 349
17 971
11 785
19 537
20 22
10 903
18 208
15 203
14 754
18 64
15 52
15 115
20 707
15 542
20 551
15 683
17 853
10 880
14 71
19 800
16 162
11 397
19 250
12 350
10 347
11 982
14 199
11 275
11 162
16 535
10 853
16 449
13 354
11 770
15 584
18 911
19 294
14 597
17 446
11 51
14 81
15 225
19 283
16 305
10 883
19 888
12 780
16 93
20 485
10 52
10 606
14 533
15 500
19 930
20 46
10 469
20 504
14 87
14 16
13 411
20 783
10 679
17 503
11 115
17 96
10 299
12 884
16 100
18 910
13 167
17 780
15 382
10 907
15 812
13 456
19 18
18 9
15 894
13 858
12 301
14 665
19 281
17 996
19 904
17 279
15 182
15 319
12 983
18 374
10 202
19 1
20 289
13 317
12 402
17 460
17 311
14 699
19 214
17 144
